
n_res = 8;
rcap = [77, 107, 88, 96, 794, 791, 767, 793];
rtype = [1, 1, 1, 1, 2, 2, 2, 2];
n_tasks = 50;
modes =  [{1, 2, 3, 4, 5, 6}, {7, 8, 9, 10, 11, 12}, {13, 14, 15, 16, 17, 18}, {19, 20, 21, 22, 23, 24}, {25, 26, 27, 28, 29, 30}, {31, 32, 33, 34, 35, 36}, {37, 38, 39, 40, 41, 42}, {43, 44, 45, 46, 47, 48}, {49, 50, 51, 52, 53, 54}, {55, 56, 57, 58, 59, 60}, {61, 62, 63, 64, 65, 66}, {67, 68, 69, 70, 71, 72}, {73, 74, 75, 76, 77, 78}, {79, 80, 81, 82, 83, 84}, {85, 86, 87, 88, 89, 90}, {91, 92, 93, 94, 95, 96}, {97, 98, 99, 100, 101, 102}, {103, 104, 105, 106, 107, 108}, {109, 110, 111, 112, 113, 114}, {115, 116, 117, 118, 119, 120}, {121, 122, 123, 124, 125, 126}, {127, 128, 129, 130, 131, 132}, {133, 134, 135, 136, 137, 138}, {139, 140, 141, 142, 143, 144}, {145, 146, 147, 148, 149, 150}, {151, 152, 153, 154, 155, 156}, {157, 158, 159, 160, 161, 162}, {163, 164, 165, 166, 167, 168}, {169, 170, 171, 172, 173, 174}, {175, 176, 177, 178, 179, 180}, {181, 182, 183, 184, 185, 186}, {187, 188, 189, 190, 191, 192}, {193, 194, 195, 196, 197, 198}, {199, 200, 201, 202, 203, 204}, {205, 206, 207, 208, 209, 210}, {211, 212, 213, 214, 215, 216}, {217, 218, 219, 220, 221, 222}, {223, 224, 225, 226, 227, 228}, {229, 230, 231, 232, 233, 234}, {235, 236, 237, 238, 239, 240}, {241, 242, 243, 244, 245, 246}, {247, 248, 249, 250, 251, 252}, {253, 254, 255, 256, 257, 258}, {259, 260, 261, 262, 263, 264}, {265, 266, 267, 268, 269, 270}, {271, 272, 273, 274, 275, 276}, {277, 278, 279, 280, 281, 282}, {283, 284, 285, 286, 287, 288}, {289, 290, 291, 292, 293, 294}, {295, 296, 297, 298, 299, 300}];
succ =  [{7, 6, 5, 3}, {12, 10, 9, 7}, {20, 14, 12, 11, 9}, {20, 14, 12, 11, 10}, {19, 18, 17, 16, 14, 13, 11}, {18, 16, 13, 8}, {18, 17, 14, 13, 11}, {17, 14, 11}, {23, 17, 16}, {23, 17, 16}, {22, 21, 15}, {19, 18, 17}, {29, 21, 20}, {21, 15}, {34, 30, 27, 25, 24, 23}, {28, 27, 26, 25, 24, 22}, {28, 27, 21}, {29, 28, 21}, {29, 21}, {28, 27, 25, 22}, {34, 26, 25, 24}, {38, 34, 33, 32, 31, 30}, {31, 29, 28}, {38, 35, 33, 31}, {38, 32, 31}, {33, 31, 30}, {38, 32, 31}, {42, 38, 35, 33}, {42, 41, 39, 38, 37, 36}, {42, 41, 40, 39, 37, 36}, {50, 44, 42, 41, 40, 39}, {50, 42, 35}, {50, 48, 41, 40, 39}, {50, 49, 47, 44, 42}, {49, 41, 37}, {49, 47, 45, 44}, {48, 47, 46, 45}, {50, 48, 47, 45}, {49, 43}, {47, 43}, {43}, {43}, {46, 45}, {48}, {}, {}, {}, {}, {}, {}];
n_opt = 300;
dur = [12, 13, 14, 15, 20, 23, 1, 2, 4, 7, 15, 27, 4, 7, 13, 19, 22, 29, 5, 6, 9, 23, 26, 29, 6, 7, 12, 18, 22, 25, 1, 3, 10, 11, 23, 28, 10, 11, 21, 22, 23, 28, 2, 5, 6, 9, 25, 30, 4, 8, 10, 21, 24, 27, 2, 4, 10, 13, 24, 26, 4, 14, 19, 20, 26, 27, 2, 5, 12, 21, 22, 27, 4, 5, 13, 17, 24, 28, 1, 12, 13, 16, 18, 21, 8, 12, 17, 26, 28, 29, 1, 2, 3, 15, 21, 26, 2, 3, 7, 18, 23, 24, 4, 6, 8, 10, 17, 19, 3, 8, 12, 22, 24, 26, 10, 13, 14, 18, 25, 30, 2, 4, 6, 13, 15, 24, 2, 9, 14, 21, 25, 26, 6, 7, 19, 21, 24, 25, 1, 2, 9, 13, 15, 24, 2, 11, 12, 13, 15, 17, 1, 2, 4, 11, 19, 27, 6, 10, 13, 20, 28, 29, 4, 8, 9, 11, 22, 24, 5, 16, 17, 18, 20, 23, 6, 14, 15, 20, 28, 29, 5, 15, 16, 20, 23, 30, 1, 16, 17, 19, 22, 24, 2, 3, 5, 8, 13, 23, 2, 10, 20, 26, 27, 30, 3, 9, 13, 20, 22, 29, 3, 5, 8, 10, 22, 23, 8, 15, 25, 27, 29, 30, 10, 11, 19, 21, 26, 27, 3, 15, 17, 18, 22, 28, 7, 8, 15, 16, 21, 28, 3, 4, 5, 9, 17, 23, 12, 20, 24, 25, 26, 30, 7, 16, 26, 28, 29, 30, 12, 15, 16, 19, 22, 27, 2, 9, 12, 20, 22, 28, 6, 13, 21, 23, 29, 30, 5, 6, 13, 16, 19, 26, 6, 8, 11, 12, 29, 30, 5, 8, 9, 21, 22, 29, 10, 17, 19, 23, 27, 29];
rreq = [|28, 27, 25, 23, 20, 19, 19, 19, 19, 19, 19, 19, 27, 21, 20, 17, 12, 9, 6, 5, 5, 4, 4, 3, 15, 15, 12, 11, 10, 9, 13, 13, 10, 9, 5, 3, 17, 14, 14, 12, 9, 9, 9, 8, 8, 7, 5, 4, 19, 15, 13, 12, 9, 5, 28, 27, 26, 25, 24, 24, 19, 19, 19, 19, 19, 19, 11, 10, 9, 9, 7, 7, 25, 24, 24, 23, 23, 22, 26, 20, 20, 15, 11, 10, 6, 6, 5, 5, 4, 4, 22, 22, 22, 21, 21, 21, 16, 12, 9, 6, 3, 3, 17, 16, 12, 12, 9, 7, 21, 20, 19, 17, 15, 13, 16, 15, 15, 13, 12, 12, 20, 20, 19, 19, 18, 17, 11, 9, 6, 5, 5, 3, 11, 10, 9, 7, 6, 4, 7, 7, 7, 7, 7, 7, 20, 19, 19, 19, 19, 19, 25, 25, 20, 16, 14, 13, 26, 23, 22, 20, 19, 16, 19, 18, 17, 14, 14, 11, 8, 8, 6, 5, 3, 2, 7, 6, 5, 4, 2, 2, 19, 18, 17, 17, 16, 15, 10, 9, 8, 8, 5, 5, 22, 21, 17, 10, 7, 4, 17, 17, 17, 17, 17, 17, 24, 21, 21, 18, 16, 14, 27, 26, 26, 24, 23, 22, 20, 17, 16, 15, 13, 13, 24, 23, 19, 18, 13, 12, 11, 10, 10, 10, 9, 9, 6, 5, 5, 4, 4, 3, 10, 7, 6, 6, 5, 3, 15, 14, 10, 8, 6, 5, 21, 17, 17, 12, 11, 8, 26, 23, 20, 17, 15, 9, 12, 10, 10, 9, 8, 8, 6, 6, 5, 4, 3, 2, 30, 29, 28, 26, 26, 24, 12, 10, 10, 7, 6, 3, 23, 22, 22, 22, 22, 22, 8, 8, 8, 8, 8, 8
 |20, 16, 14, 12, 9, 4, 28, 27, 26, 25, 24, 23, 27, 19, 18, 14, 7, 1, 12, 8, 8, 6, 5, 2, 25, 22, 20, 16, 12, 11, 9, 9, 8, 8, 7, 6, 21, 21, 19, 17, 13, 13, 9, 7, 6, 4, 4, 2, 25, 22, 22, 15, 11, 10, 26, 23, 19, 14, 13, 6, 25, 19, 15, 15, 10, 8, 30, 26, 23, 20, 18, 15, 18, 15, 14, 12, 12, 11, 22, 17, 15, 14, 8, 8, 23, 23, 22, 20, 20, 19, 25, 24, 23, 23, 22, 21, 10, 9, 6, 4, 4, 2, 8, 7, 6, 5, 5, 4, 14, 13, 11, 8, 7, 4, 11, 10, 9, 9, 8, 6, 22, 20, 19, 17, 16, 14, 29, 27, 24, 22, 19, 18, 29, 29, 29, 29, 29, 29, 7, 7, 6, 5, 4, 2, 28, 26, 25, 21, 21, 18, 15, 13, 12, 11, 10, 10, 21, 19, 19, 17, 16, 13, 19, 19, 18, 18, 17, 17, 19, 18, 18, 17, 16, 15, 19, 16, 14, 8, 4, 1, 27, 24, 23, 23, 20, 19, 29, 28, 28, 27, 27, 26, 7, 6, 6, 5, 4, 3, 15, 13, 10, 9, 6, 4, 4, 4, 4, 3, 2, 2, 28, 27, 27, 26, 25, 25, 26, 24, 20, 18, 14, 11, 30, 25, 19, 15, 11, 7, 27, 22, 19, 18, 12, 12, 22, 21, 19, 18, 17, 17, 28, 27, 26, 24, 23, 22, 23, 19, 18, 13, 9, 3, 21, 17, 17, 12, 8, 4, 24, 19, 17, 16, 11, 11, 25, 23, 23, 22, 20, 19, 16, 16, 14, 13, 12, 12, 17, 17, 13, 11, 9, 8, 20, 19, 19, 19, 19, 19, 17, 13, 11, 8, 6, 3, 16, 15, 15, 15, 14, 14
 |18, 18, 18, 18, 17, 17, 6, 6, 5, 3, 3, 2, 28, 28, 25, 23, 23, 21, 14, 13, 13, 11, 9, 8, 18, 17, 16, 16, 15, 13, 20, 19, 19, 19, 19, 19, 22, 22, 22, 21, 21, 20, 20, 19, 19, 19, 17, 17, 23, 22, 18, 18, 13, 13, 13, 12, 12, 12, 11, 10, 22, 21, 13, 10, 9, 3, 27, 26, 26, 25, 24, 24, 6, 6, 6, 6, 6, 6, 28, 23, 21, 14, 14, 10, 12, 10, 10, 8, 8, 7, 9, 7, 7, 4, 4, 1, 5, 5, 5, 4, 4, 3, 15, 13, 10, 9, 6, 6, 29, 25, 20, 17, 16, 12, 4, 4, 3, 3, 1, 1, 15, 11, 9, 8, 6, 5, 19, 16, 13, 11, 7, 5, 20, 18, 17, 16, 16, 15, 18, 16, 15, 13, 12, 9, 15, 15, 11, 11, 8, 6, 18, 17, 16, 15, 14, 12, 26, 23, 17, 16, 13, 8, 24, 22, 22, 22, 21, 20, 21, 21, 21, 20, 20, 20, 23, 22, 22, 21, 20, 20, 21, 21, 21, 21, 20, 20, 14, 12, 12, 12, 11, 10, 16, 13, 11, 7, 7, 5, 22, 20, 14, 10, 8, 7, 22, 20, 20, 17, 16, 14, 11, 10, 9, 6, 6, 4, 29, 27, 26, 25, 24, 22, 24, 23, 19, 14, 11, 7, 16, 15, 14, 14, 13, 13, 21, 19, 14, 10, 5, 4, 20, 20, 20, 19, 19, 19, 19, 19, 19, 19, 19, 19, 22, 21, 21, 21, 20, 19, 14, 13, 13, 12, 12, 12, 17, 16, 14, 14, 13, 10, 26, 25, 23, 18, 16, 14, 15, 13, 13, 9, 8, 7, 27, 25, 23, 22, 20, 18, 20, 18, 17, 10, 7, 3, 21, 20, 19, 19, 17, 17
 |21, 21, 21, 21, 21, 21, 17, 17, 17, 17, 17, 17, 26, 24, 19, 18, 12, 12, 18, 18, 17, 16, 15, 13, 11, 11, 11, 10, 9, 9, 25, 25, 25, 25, 24, 24, 30, 28, 26, 24, 20, 20, 16, 16, 16, 16, 16, 16, 23, 19, 15, 13, 9, 7, 26, 24, 23, 20, 20, 17, 26, 26, 24, 21, 18, 17, 21, 20, 18, 15, 13, 12, 22, 20, 17, 16, 13, 12, 18, 15, 14, 11, 11, 9, 26, 25, 22, 16, 15, 12, 8, 6, 6, 4, 4, 3, 7, 6, 6, 6, 6, 6, 22, 21, 21, 21, 21, 21, 17, 17, 17, 17, 17, 17, 29, 24, 23, 19, 14, 10, 17, 16, 15, 14, 13, 11, 18, 18, 15, 11, 9, 7, 18, 14, 13, 12, 10, 9, 28, 25, 20, 15, 10, 4, 24, 20, 15, 11, 10, 6, 16, 13, 13, 10, 8, 7, 27, 25, 23, 22, 20, 19, 21, 20, 20, 20, 20, 20, 28, 27, 25, 22, 21, 19, 22, 22, 22, 22, 22, 22, 19, 19, 16, 10, 6, 4, 16, 14, 12, 10, 9, 9, 23, 22, 22, 21, 21, 20, 15, 14, 13, 13, 13, 12, 15, 13, 11, 9, 8, 6, 26, 25, 24, 23, 21, 21, 26, 24, 21, 19, 16, 14, 21, 19, 19, 19, 18, 17, 27, 26, 26, 25, 25, 25, 19, 18, 18, 15, 14, 13, 26, 21, 18, 15, 8, 7, 17, 14, 14, 12, 11, 9, 26, 25, 25, 25, 25, 25, 25, 25, 25, 25, 25, 25, 19, 18, 14, 13, 11, 10, 18, 17, 16, 14, 13, 12, 20, 17, 14, 14, 11, 8, 25, 22, 14, 10, 8, 6, 12, 9, 8, 6, 4, 3, 27, 26, 26, 26, 25, 25
 |21, 20, 19, 18, 17, 17, 25, 24, 21, 17, 15, 15, 18, 16, 14, 10, 10, 5, 5, 5, 5, 5, 5, 5, 19, 18, 17, 16, 15, 14, 12, 11, 10, 9, 7, 7, 15, 13, 12, 11, 10, 9, 26, 25, 24, 24, 23, 22, 24, 20, 16, 16, 12, 11, 24, 22, 22, 19, 17, 15, 16, 15, 15, 14, 12, 12, 12, 12, 10, 9, 7, 7, 16, 15, 13, 9, 8, 4, 23, 22, 21, 21, 19, 19, 14, 14, 12, 11, 10, 9, 18, 16, 14, 13, 12, 10, 4, 3, 3, 2, 2, 1, 22, 20, 17, 15, 9, 7, 27, 25, 24, 24, 22, 22, 14, 14, 13, 11, 11, 9, 4, 3, 3, 3, 3, 3, 25, 25, 24, 24, 24, 23, 22, 18, 16, 15, 12, 12, 29, 26, 22, 19, 14, 9, 25, 22, 19, 17, 16, 15, 27, 23, 22, 21, 20, 17, 18, 17, 16, 15, 15, 14, 25, 23, 23, 23, 22, 21, 13, 12, 9, 9, 5, 5, 9, 9, 7, 6, 6, 4, 25, 22, 21, 21, 19, 18, 28, 26, 23, 23, 22, 20, 16, 16, 15, 15, 14, 14, 17, 16, 14, 14, 13, 11, 27, 27, 27, 27, 27, 27, 27, 26, 20, 17, 17, 14, 19, 16, 15, 13, 10, 9, 16, 13, 12, 7, 7, 2, 28, 27, 26, 22, 20, 19, 24, 24, 24, 24, 24, 24, 15, 15, 14, 13, 10, 9, 18, 12, 10, 8, 5, 3, 26, 25, 21, 19, 16, 11, 25, 20, 18, 15, 13, 12, 25, 20, 19, 12, 10, 5, 5, 5, 4, 4, 3, 3, 20, 20, 20, 20, 20, 20, 25, 23, 18, 16, 9, 7, 16, 15, 15, 15, 15, 15, 29, 26, 25, 25, 22, 20
 |14, 13, 12, 10, 10, 9, 29, 21, 18, 12, 9, 6, 17, 15, 14, 14, 11, 9, 14, 11, 9, 9, 7, 5, 9, 8, 8, 8, 7, 6, 25, 23, 22, 20, 20, 19, 17, 15, 11, 10, 7, 4, 22, 17, 16, 11, 6, 1, 26, 26, 22, 20, 18, 18, 27, 18, 17, 13, 9, 3, 24, 23, 18, 15, 11, 11, 17, 16, 14, 13, 12, 11, 28, 27, 26, 26, 25, 25, 25, 24, 24, 22, 19, 18, 15, 15, 13, 12, 10, 10, 26, 25, 24, 24, 22, 22, 20, 20, 19, 19, 19, 18, 28, 24, 18, 14, 10, 5, 21, 20, 20, 19, 19, 18, 21, 20, 19, 19, 17, 17, 23, 22, 22, 21, 19, 19, 29, 28, 28, 28, 28, 28, 25, 23, 22, 21, 20, 19, 21, 18, 15, 10, 6, 6, 4, 3, 3, 3, 3, 3, 30, 29, 29, 28, 27, 27, 26, 25, 19, 19, 14, 12, 19, 18, 18, 17, 17, 17, 26, 24, 19, 11, 5, 4, 29, 27, 25, 25, 22, 22, 9, 9, 9, 9, 9, 9, 12, 11, 11, 10, 8, 8, 5, 5, 4, 4, 3, 3, 23, 22, 22, 22, 21, 21, 27, 26, 25, 24, 23, 22, 29, 27, 25, 22, 20, 17, 5, 3, 3, 2, 2, 1, 5, 5, 5, 5, 5, 5, 17, 16, 16, 15, 15, 15, 11, 7, 7, 6, 2, 1, 26, 20, 15, 13, 7, 4, 22, 19, 19, 17, 15, 13, 2, 2, 2, 2, 2, 2, 28, 27, 27, 25, 24, 24, 11, 10, 10, 9, 9, 8, 12, 11, 9, 6, 4, 2, 26, 24, 20, 11, 8, 5, 25, 24, 22, 22, 20, 19, 17, 17, 17, 16, 15, 15, 25, 17, 13, 10, 6, 3
 |28, 25, 24, 20, 20, 17, 11, 9, 7, 6, 5, 4, 26, 23, 18, 16, 15, 13, 20, 17, 13, 9, 8, 6, 12, 11, 11, 11, 11, 11, 17, 14, 14, 12, 7, 5, 17, 16, 16, 16, 16, 16, 23, 18, 13, 12, 6, 5, 14, 11, 11, 8, 7, 7, 21, 17, 16, 12, 7, 5, 13, 10, 10, 6, 4, 3, 20, 19, 18, 18, 16, 16, 23, 21, 21, 21, 20, 19, 27, 25, 20, 18, 15, 14, 26, 19, 17, 12, 7, 6, 29, 23, 23, 20, 14, 10, 22, 22, 22, 22, 22, 22, 27, 26, 26, 25, 24, 24, 6, 5, 4, 4, 3, 2, 27, 23, 21, 19, 15, 12, 20, 18, 18, 17, 16, 15, 23, 19, 16, 12, 9, 7, 16, 12, 9, 8, 5, 5, 17, 17, 13, 11, 10, 7, 13, 13, 13, 12, 11, 11, 16, 15, 12, 10, 7, 7, 28, 26, 26, 26, 24, 24, 16, 14, 12, 8, 7, 6, 6, 4, 4, 2, 1, 1, 3, 3, 3, 2, 2, 1, 12, 10, 8, 7, 5, 4, 30, 30, 30, 30, 30, 30, 12, 12, 12, 11, 10, 10, 12, 12, 12, 12, 12, 12, 27, 27, 25, 25, 23, 22, 28, 23, 20, 19, 16, 13, 16, 16, 13, 10, 10, 8, 14, 12, 12, 10, 9, 8, 24, 24, 21, 18, 16, 12, 18, 16, 16, 13, 12, 11, 19, 14, 13, 12, 6, 4, 17, 17, 16, 14, 13, 13, 27, 25, 23, 19, 16, 15, 27, 25, 24, 24, 23, 22, 24, 24, 22, 18, 18, 15, 27, 27, 26, 26, 26, 25, 13, 13, 13, 13, 13, 13, 11, 11, 11, 11, 11, 11, 17, 16, 16, 15, 14, 14, 16, 15, 15, 14, 14, 13
 |28, 24, 22, 21, 18, 15, 30, 26, 21, 18, 15, 13, 12, 10, 8, 8, 5, 3, 23, 20, 19, 18, 17, 16, 23, 21, 21, 18, 18, 15, 19, 18, 18, 18, 18, 18, 3, 2, 2, 2, 2, 2, 12, 11, 11, 9, 7, 6, 7, 6, 6, 6, 6, 6, 23, 21, 20, 20, 19, 18, 21, 17, 14, 13, 11, 7, 25, 21, 18, 12, 11, 6, 2, 2, 2, 2, 2, 2, 12, 10, 9, 7, 6, 5, 23, 21, 20, 19, 19, 18, 28, 26, 25, 25, 24, 22, 27, 26, 26, 25, 25, 25, 25, 21, 19, 17, 16, 13, 13, 12, 9, 6, 3, 1, 28, 24, 23, 19, 14, 13, 13, 12, 11, 8, 8, 6, 29, 28, 28, 28, 28, 28, 21, 20, 18, 17, 17, 16, 24, 23, 23, 23, 22, 22, 19, 16, 14, 10, 8, 5, 16, 16, 12, 12, 7, 6, 26, 26, 26, 26, 25, 25, 22, 21, 21, 21, 21, 21, 18, 14, 12, 11, 5, 5, 29, 25, 23, 20, 16, 15, 10, 10, 10, 10, 9, 9, 23, 21, 21, 19, 19, 17, 24, 22, 20, 19, 14, 13, 7, 6, 6, 6, 6, 6, 14, 11, 10, 6, 4, 3, 16, 16, 15, 15, 14, 14, 14, 13, 13, 12, 10, 10, 26, 23, 23, 19, 17, 17, 29, 29, 29, 29, 29, 29, 21, 19, 15, 11, 9, 5, 24, 22, 20, 18, 15, 15, 5, 3, 3, 3, 1, 1, 18, 13, 10, 8, 6, 2, 18, 18, 16, 14, 10, 9, 16, 14, 12, 11, 7, 3, 18, 15, 15, 14, 11, 11, 22, 18, 17, 17, 14, 12, 27, 24, 21, 19, 15, 14, 25, 19, 17, 16, 14, 10, 30, 29, 28, 27, 26, 25|];